sat
(:arith-branch        3
 :arith-cube-calls    1
 :arith-cube-success  1
 :arith-gcd-calls     4
 :arith-lower         13
 :arith-make-feasible 7
 :arith-max-columns   44
 :arith-max-rows      25
 :arith-patches       4
 :arith-upper         15
 :decisions           3
 :final-checks        4
 :max-memory          19.18
 :memory              18.60
 :mk-bool-var         28
 :num-allocs          142271
 :num-checks          1
 :rlimit-count        4314
 :time                0.03
 :total-time          0.09)
